(set-info :smt-lib-version 2.6)
(set-logic QF_LRA)
(set-info :source | Clock Synchronization. Bruno Dutertre (bruno@csl.sri.com) |)
(set-info :category "industrial")
(set-info :status unsat)
(declare-fun x_0 () Real)
(declare-fun x_1 () Real)
(declare-fun x_2 () Real)
(declare-fun x_3 () Real)
(declare-fun x_4 () Real)
(declare-fun x_5 () Real)
(declare-fun x_6 () Real)
(declare-fun x_7 () Real)
(declare-fun x_8 () Real)
(declare-fun x_9 () Real)
(declare-fun x_10 () Real)
(declare-fun x_11 () Real)
(declare-fun x_12 () Real)
(declare-fun x_13 () Real)
(declare-fun x_14 () Real)
(declare-fun x_15 () Real)
(declare-fun x_16 () Real)
(declare-fun x_17 () Real)
(declare-fun x_18 () Real)
(declare-fun x_19 () Real)
(declare-fun x_20 () Real)
(declare-fun x_21 () Real)
(declare-fun x_22 () Real)
(declare-fun x_23 () Real)
(declare-fun x_24 () Real)
(declare-fun x_25 () Real)
(declare-fun x_26 () Real)
(declare-fun x_27 () Real)
(declare-fun x_28 () Real)
(declare-fun x_29 () Real)
(declare-fun x_30 () Real)
(declare-fun x_31 () Real)
(declare-fun x_32 () Real)
(declare-fun x_33 () Real)
(declare-fun x_34 () Real)
(declare-fun x_35 () Real)
(declare-fun x_36 () Real)
(declare-fun x_37 () Real)
(declare-fun x_38 () Real)
(declare-fun x_39 () Real)
(declare-fun x_40 () Real)
(declare-fun x_41 () Real)
(declare-fun x_42 () Real)
(declare-fun x_43 () Real)
(declare-fun x_44 () Real)
(declare-fun x_45 () Real)
(declare-fun x_46 () Real)
(declare-fun x_47 () Real)
(declare-fun x_48 () Real)
(declare-fun x_49 () Real)
(declare-fun x_50 () Real)
(declare-fun x_51 () Real)
(declare-fun x_52 () Real)
(declare-fun x_53 () Real)
(declare-fun x_54 () Real)
(declare-fun x_55 () Real)
(declare-fun x_56 () Real)
(declare-fun x_57 () Real)
(declare-fun x_58 () Real)
(declare-fun x_59 () Real)
(declare-fun x_60 () Real)
(declare-fun x_61 () Real)
(declare-fun x_62 () Real)
(declare-fun x_63 () Real)
(declare-fun x_64 () Real)
(declare-fun x_65 () Real)
(declare-fun x_66 () Real)
(declare-fun x_67 () Real)
(declare-fun x_68 () Real)
(declare-fun x_69 () Real)
(declare-fun x_70 () Real)
(declare-fun x_71 () Real)
(declare-fun x_72 () Real)
(assert (let ((?v_61 (<= x_17 x_37)) (?v_65 (<= x_20 x_37)) (?v_69 (<= x_23 x_37)) (?v_73 (<= x_26 x_37)) (?v_77 (<= x_29 x_37)) (?v_81 (<= x_32 x_37)) (?v_85 (<= x_35 x_37)) (?v_19 (= x_44 x_37)) (?v_20 (= x_45 x_37)) (?v_21 (= x_46 x_37)) (?v_22 (= x_47 x_37)) (?v_23 (= x_48 x_37)) (?v_24 (= x_49 x_37)) (?v_25 (= x_50 x_37))) (let ((?v_40 (not ?v_19)) (?v_43 (not ?v_20)) (?v_46 (not ?v_21)) (?v_49 (not ?v_22)) (?v_52 (not ?v_23)) (?v_55 (not ?v_24)) (?v_58 (not ?v_25)) (?v_18 (+ (+ x_37 x_38) x_39))) (let ((?v_62 (= x_44 ?v_18)) (?v_66 (= x_45 ?v_18)) (?v_70 (= x_46 ?v_18)) (?v_74 (= x_47 ?v_18)) (?v_78 (= x_48 ?v_18)) (?v_82 (= x_49 ?v_18)) (?v_86 (= x_50 ?v_18))) (let ((?v_110 (not ?v_62))) (let ((?v_89 (and ?v_61 ?v_110)) (?v_111 (not ?v_66))) (let ((?v_92 (and ?v_65 ?v_111)) (?v_112 (not ?v_70))) (let ((?v_95 (and ?v_69 ?v_112)) (?v_113 (not ?v_74))) (let ((?v_98 (and ?v_73 ?v_113)) (?v_114 (not ?v_78))) (let ((?v_101 (and ?v_77 ?v_114)) (?v_115 (not ?v_82))) (let ((?v_104 (and ?v_81 ?v_115)) (?v_116 (not ?v_86))) (let ((?v_107 (and ?v_85 ?v_116)) (?v_2 (- x_1 x_16)) (?v_3 (- x_17 x_18)) (?v_4 (- x_2 x_19)) (?v_5 (- x_20 x_21)) (?v_6 (- x_3 x_22)) (?v_7 (- x_23 x_24)) (?v_8 (- x_4 x_25)) (?v_9 (- x_26 x_27)) (?v_10 (- x_5 x_28)) (?v_11 (- x_29 x_30)) (?v_12 (- x_6 x_31)) (?v_13 (- x_32 x_33)) (?v_14 (- x_7 x_34)) (?v_15 (- x_35 x_36)) (?v_16 (- x_37 x_42)) (?v_17 (- x_37 x_43)) (?v_26 (- x_1 x_9)) (?v_27 (- x_17 x_51)) (?v_28 (- x_2 x_10)) (?v_29 (- x_20 x_52)) (?v_30 (- x_3 x_11)) (?v_31 (- x_23 x_53)) (?v_32 (- x_4 x_12)) (?v_33 (- x_26 x_54)) (?v_34 (- x_5 x_13)) (?v_35 (- x_29 x_55)) (?v_36 (- x_6 x_14)) (?v_37 (- x_32 x_56)) (?v_38 (- x_7 x_15)) (?v_39 (- x_35 x_57)) (?v_41 (- x_1 x_58)) (?v_42 (- x_17 x_37)) (?v_44 (- x_2 x_59)) (?v_45 (- x_20 x_37)) (?v_47 (- x_3 x_60)) (?v_48 (- x_23 x_37)) (?v_50 (- x_4 x_61)) (?v_51 (- x_26 x_37)) (?v_53 (- x_5 x_62)) (?v_54 (- x_29 x_37)) (?v_56 (- x_6 x_63)) (?v_57 (- x_32 x_37)) (?v_59 (- x_7 x_64)) (?v_60 (- x_35 x_37)) (?v_90 (- x_58 x_9))) (let ((?v_63 (* ?v_90 1000)) (?v_64 (* (- x_58 x_15) 1000)) (?v_67 (* (- x_59 x_9) 1000)) (?v_68 (* (- x_59 x_15) 1000)) (?v_71 (* (- x_60 x_9) 1000)) (?v_72 (* (- x_60 x_15) 1000)) (?v_75 (* (- x_61 x_9) 1000)) (?v_76 (* (- x_61 x_15) 1000)) (?v_79 (* (- x_62 x_9) 1000)) (?v_80 (* (- x_62 x_15) 1000)) (?v_83 (* (- x_63 x_9) 1000)) (?v_84 (* (- x_63 x_15) 1000)) (?v_87 (* (- x_64 x_9) 1000)) (?v_108 (- x_64 x_15))) (let ((?v_88 (* ?v_108 1000)) (?v_91 (- x_37 x_51)) (?v_93 (- x_59 x_10)) (?v_94 (- x_37 x_52)) (?v_96 (- x_60 x_11)) (?v_97 (- x_37 x_53)) (?v_99 (- x_61 x_12)) (?v_100 (- x_37 x_54)) (?v_102 (- x_62 x_13)) (?v_103 (- x_37 x_55)) (?v_105 (- x_63 x_14)) (?v_106 (- x_37 x_56)) (?v_109 (- x_37 x_57)) (?v_117 (- x_16 x_58)) (?v_119 (- x_19 x_59)) (?v_121 (- x_22 x_60)) (?v_122 (- x_25 x_61)) (?v_123 (- x_28 x_62)) (?v_124 (- x_31 x_63)) (?v_125 (- x_34 x_64)) (?v_0 (+ x_0 (/ 1001 1000))) (?v_1 (+ x_8 (/ 1001 1000))) (?v_118 (* (* x_39 999) (/ 1 1000))) (?v_120 (* (* x_39 1001) (/ 1 1000))) (?v_126 (+ (+ (+ x_40 x_41) (* (* (+ x_42 x_39) 2) (/ 1 999))) (/ 2335 666)))) (and (and (and (and (and (and (and (and (and (and (and (and (and (and (and (and (and (and (and (and (and (and (and (and (and (and (and (and (and (and (and (and (and (and (and (and (and (and (and (and (and (and (and (and (and (and (and (and (and (and (and (and (and (and (and (and (and (and (and (and (and (and (and (and (and (and (and (and (and (and (and (and (and (and (and (and (and (and (and (and (and (and (and (and (and (and (and (and (and (and (and (and (and (and (and (and (and (and (and (and (and (and (and (and (and (and (and (and (and (and (and (and (and (and (and (and (and (and (and (and (and (and (and (and (and (and (and (and (and (and (and (and (and (and (and (and (and (and (and (and (and (and (and (and (and (and (and (and (and (and (and (and (and (and (and (and (and (and (and (and (and (and (and (and (not (<= x_38 0)) (not (<= x_39 0))) (not (<= x_40 0))) (not (< x_41 (+ x_40 (* (* (+ (* (* x_39 1) (/ 1 2)) 1) 1001) (/ 1 999)))))) (< x_42 (- (* (* (- (- x_39 x_41) 1) 999) (/ 1 2)) 1))) (not (< x_42 (* (* (+ (+ (+ x_38 x_40) x_41) (/ 1501 1000)) 1001) (/ 1 999))))) (not (<= x_43 0))) (<= x_43 (- x_38 (+ (+ x_40 (* (* (+ x_39 2) 1001) (/ 1 999))) (/ 1 2))))) (<= x_0 x_1)) (<= x_0 x_2)) (<= x_0 x_3)) (<= x_0 x_4)) (<= x_0 x_5)) (<= x_0 x_6)) (<= x_0 x_7)) (<= x_1 ?v_0)) (<= x_2 ?v_0)) (<= x_3 ?v_0)) (<= x_4 ?v_0)) (<= x_5 ?v_0)) (<= x_6 ?v_0)) (<= x_7 ?v_0)) (<= x_8 x_9)) (<= x_8 x_10)) (<= x_8 x_11)) (<= x_8 x_12)) (<= x_8 x_13)) (<= x_8 x_14)) (<= x_8 x_15)) (<= x_9 ?v_1)) (<= x_10 ?v_1)) (<= x_11 ?v_1)) (<= x_12 ?v_1)) (<= x_13 ?v_1)) (<= x_14 ?v_1)) (<= x_15 ?v_1)) (<= (* (* ?v_3 999) (/ 1 1000)) ?v_2)) (<= (* (* ?v_5 999) (/ 1 1000)) ?v_4)) (<= (* (* ?v_7 999) (/ 1 1000)) ?v_6)) (<= (* (* ?v_9 999) (/ 1 1000)) ?v_8)) (<= (* (* ?v_11 999) (/ 1 1000)) ?v_10)) (<= (* (* ?v_13 999) (/ 1 1000)) ?v_12)) (<= (* (* ?v_15 999) (/ 1 1000)) ?v_14)) (<= ?v_2 (* (* ?v_3 1001) (/ 1 1000)))) (<= ?v_4 (* (* ?v_5 1001) (/ 1 1000)))) (<= ?v_6 (* (* ?v_7 1001) (/ 1 1000)))) (<= ?v_8 (* (* ?v_9 1001) (/ 1 1000)))) (<= ?v_10 (* (* ?v_11 1001) (/ 1 1000)))) (<= ?v_12 (* (* ?v_13 1001) (/ 1 1000)))) (<= ?v_14 (* (* ?v_15 1001) (/ 1 1000)))) (<= ?v_16 x_51)) (<= ?v_16 x_52)) (<= ?v_16 x_53)) (<= ?v_16 x_54)) (<= ?v_16 x_55)) (<= ?v_16 x_56)) (<= ?v_16 x_57)) (<= x_51 ?v_17)) (<= x_52 ?v_17)) (<= x_53 ?v_17)) (<= x_54 ?v_17)) (<= x_55 ?v_17)) (<= x_56 ?v_17)) (<= x_57 ?v_17)) (<= (- x_51 x_51) x_41)) (<= (- x_52 x_51) x_41)) (<= (- x_53 x_51) x_41)) (<= (- x_54 x_51) x_41)) (<= (- x_55 x_51) x_41)) (<= (- x_56 x_51) x_41)) (<= (- x_57 x_51) x_41)) (<= (- x_51 x_52) x_41)) (<= (- x_52 x_52) x_41)) (<= (- x_53 x_52) x_41)) (<= (- x_54 x_52) x_41)) (<= (- x_55 x_52) x_41)) (<= (- x_56 x_52) x_41)) (<= (- x_57 x_52) x_41)) (<= (- x_51 x_53) x_41)) (<= (- x_52 x_53) x_41)) (<= (- x_53 x_53) x_41)) (<= (- x_54 x_53) x_41)) (<= (- x_55 x_53) x_41)) (<= (- x_56 x_53) x_41)) (<= (- x_57 x_53) x_41)) (<= (- x_51 x_54) x_41)) (<= (- x_52 x_54) x_41)) (<= (- x_53 x_54) x_41)) (<= (- x_54 x_54) x_41)) (<= (- x_55 x_54) x_41)) (<= (- x_56 x_54) x_41)) (<= (- x_57 x_54) x_41)) (<= (- x_51 x_55) x_41)) (<= (- x_52 x_55) x_41)) (<= (- x_53 x_55) x_41)) (<= (- x_54 x_55) x_41)) (<= (- x_55 x_55) x_41)) (<= (- x_56 x_55) x_41)) (<= (- x_57 x_55) x_41)) (<= (- x_51 x_56) x_41)) (<= (- x_52 x_56) x_41)) (<= (- x_53 x_56) x_41)) (<= (- x_54 x_56) x_41)) (<= (- x_55 x_56) x_41)) (<= (- x_56 x_56) x_41)) (<= (- x_57 x_56) x_41)) (<= (- x_51 x_57) x_41)) (<= (- x_52 x_57) x_41)) (<= (- x_53 x_57) x_41)) (<= (- x_54 x_57) x_41)) (<= (- x_55 x_57) x_41)) (<= (- x_56 x_57) x_41)) (<= (- x_57 x_57) x_41)) (or (and ?v_19 (<= x_17 x_65)) ?v_62)) (or (and ?v_20 (<= x_20 x_65)) ?v_66)) (or (and ?v_21 (<= x_23 x_65)) ?v_70)) (or (and ?v_22 (<= x_26 x_65)) ?v_74)) (or (and ?v_23 (<= x_29 x_65)) ?v_78)) (or (and ?v_24 (<= x_32 x_65)) ?v_82)) (or (and ?v_25 (<= x_35 x_65)) ?v_86)) (or (or (or (or (or (or ?v_19 ?v_20) ?v_21) ?v_22) ?v_23) ?v_24) ?v_25)) (or ?v_40 (and (<= (* (* ?v_27 999) (/ 1 1000)) ?v_26) (<= ?v_26 (* (* ?v_27 1001) (/ 1 1000)))))) (or ?v_43 (and (<= (* (* ?v_29 999) (/ 1 1000)) ?v_28) (<= ?v_28 (* (* ?v_29 1001) (/ 1 1000)))))) (or ?v_46 (and (<= (* (* ?v_31 999) (/ 1 1000)) ?v_30) (<= ?v_30 (* (* ?v_31 1001) (/ 1 1000)))))) (or ?v_49 (and (<= (* (* ?v_33 999) (/ 1 1000)) ?v_32) (<= ?v_32 (* (* ?v_33 1001) (/ 1 1000)))))) (or ?v_52 (and (<= (* (* ?v_35 999) (/ 1 1000)) ?v_34) (<= ?v_34 (* (* ?v_35 1001) (/ 1 1000)))))) (or ?v_55 (and (<= (* (* ?v_37 999) (/ 1 1000)) ?v_36) (<= ?v_36 (* (* ?v_37 1001) (/ 1 1000)))))) (or ?v_58 (and (<= (* (* ?v_39 999) (/ 1 1000)) ?v_38) (<= ?v_38 (* (* ?v_39 1001) (/ 1 1000)))))) (or (or ?v_40 ?v_61) (and (and (not (< x_0 x_58)) (<= (* (* ?v_42 999) (/ 1 1000)) ?v_41)) (<= ?v_41 (* (* ?v_42 1001) (/ 1 1000)))))) (or (or ?v_43 ?v_65) (and (and (not (< x_0 x_59)) (<= (* (* ?v_45 999) (/ 1 1000)) ?v_44)) (<= ?v_44 (* (* ?v_45 1001) (/ 1 1000)))))) (or (or ?v_46 ?v_69) (and (and (not (< x_0 x_60)) (<= (* (* ?v_48 999) (/ 1 1000)) ?v_47)) (<= ?v_47 (* (* ?v_48 1001) (/ 1 1000)))))) (or (or ?v_49 ?v_73) (and (and (not (< x_0 x_61)) (<= (* (* ?v_51 999) (/ 1 1000)) ?v_50)) (<= ?v_50 (* (* ?v_51 1001) (/ 1 1000)))))) (or (or ?v_52 ?v_77) (and (and (not (< x_0 x_62)) (<= (* (* ?v_54 999) (/ 1 1000)) ?v_53)) (<= ?v_53 (* (* ?v_54 1001) (/ 1 1000)))))) (or (or ?v_55 ?v_81) (and (and (not (< x_0 x_63)) (<= (* (* ?v_57 999) (/ 1 1000)) ?v_56)) (<= ?v_56 (* (* ?v_57 1001) (/ 1 1000)))))) (or (or ?v_58 ?v_85) (and (and (not (< x_0 x_64)) (<= (* (* ?v_60 999) (/ 1 1000)) ?v_59)) (<= ?v_59 (* (* ?v_60 1001) (/ 1 1000)))))) (or ?v_89 (and (<= x_66 (+ (+ (* (* (+ (+ (+ x_51 (* ?v_63 (/ 1 999))) x_57) (* ?v_64 (/ 1 999))) 1) (/ 1 2)) x_40) (/ 3001 1998))) (not (< x_66 (- (- (* (* (+ (+ (+ x_51 (* ?v_63 (/ 1 1001))) x_57) (* ?v_64 (/ 1 1001))) 1) (/ 1 2)) x_40) (/ 1 2))))))) (or ?v_92 (and (<= x_67 (+ (+ (* (* (+ (+ (+ x_51 (* ?v_67 (/ 1 999))) x_57) (* ?v_68 (/ 1 999))) 1) (/ 1 2)) x_40) (/ 3001 1998))) (not (< x_67 (- (- (* (* (+ (+ (+ x_51 (* ?v_67 (/ 1 1001))) x_57) (* ?v_68 (/ 1 1001))) 1) (/ 1 2)) x_40) (/ 1 2))))))) (or ?v_95 (and (<= x_68 (+ (+ (* (* (+ (+ (+ x_51 (* ?v_71 (/ 1 999))) x_57) (* ?v_72 (/ 1 999))) 1) (/ 1 2)) x_40) (/ 3001 1998))) (not (< x_68 (- (- (* (* (+ (+ (+ x_51 (* ?v_71 (/ 1 1001))) x_57) (* ?v_72 (/ 1 1001))) 1) (/ 1 2)) x_40) (/ 1 2))))))) (or ?v_98 (and (<= x_69 (+ (+ (* (* (+ (+ (+ x_51 (* ?v_75 (/ 1 999))) x_57) (* ?v_76 (/ 1 999))) 1) (/ 1 2)) x_40) (/ 3001 1998))) (not (< x_69 (- (- (* (* (+ (+ (+ x_51 (* ?v_75 (/ 1 1001))) x_57) (* ?v_76 (/ 1 1001))) 1) (/ 1 2)) x_40) (/ 1 2))))))) (or ?v_101 (and (<= x_70 (+ (+ (* (* (+ (+ (+ x_51 (* ?v_79 (/ 1 999))) x_57) (* ?v_80 (/ 1 999))) 1) (/ 1 2)) x_40) (/ 3001 1998))) (not (< x_70 (- (- (* (* (+ (+ (+ x_51 (* ?v_79 (/ 1 1001))) x_57) (* ?v_80 (/ 1 1001))) 1) (/ 1 2)) x_40) (/ 1 2))))))) (or ?v_104 (and (<= x_71 (+ (+ (* (* (+ (+ (+ x_51 (* ?v_83 (/ 1 999))) x_57) (* ?v_84 (/ 1 999))) 1) (/ 1 2)) x_40) (/ 3001 1998))) (not (< x_71 (- (- (* (* (+ (+ (+ x_51 (* ?v_83 (/ 1 1001))) x_57) (* ?v_84 (/ 1 1001))) 1) (/ 1 2)) x_40) (/ 1 2))))))) (or ?v_107 (and (<= x_72 (+ (+ (* (* (+ (+ (+ x_51 (* ?v_87 (/ 1 999))) x_57) (* ?v_88 (/ 1 999))) 1) (/ 1 2)) x_40) (/ 3001 1998))) (not (< x_72 (- (- (* (* (+ (+ (+ x_51 (* ?v_87 (/ 1 1001))) x_57) (* ?v_88 (/ 1 1001))) 1) (/ 1 2)) x_40) (/ 1 2))))))) (or ?v_89 (and (<= (* (* ?v_91 999) (/ 1 1000)) ?v_90) (<= ?v_90 (* (* ?v_91 1001) (/ 1 1000)))))) (or ?v_92 (and (<= (* (* ?v_94 999) (/ 1 1000)) ?v_93) (<= ?v_93 (* (* ?v_94 1001) (/ 1 1000)))))) (or ?v_95 (and (<= (* (* ?v_97 999) (/ 1 1000)) ?v_96) (<= ?v_96 (* (* ?v_97 1001) (/ 1 1000)))))) (or ?v_98 (and (<= (* (* ?v_100 999) (/ 1 1000)) ?v_99) (<= ?v_99 (* (* ?v_100 1001) (/ 1 1000)))))) (or ?v_101 (and (<= (* (* ?v_103 999) (/ 1 1000)) ?v_102) (<= ?v_102 (* (* ?v_103 1001) (/ 1 1000)))))) (or ?v_104 (and (<= (* (* ?v_106 999) (/ 1 1000)) ?v_105) (<= ?v_105 (* (* ?v_106 1001) (/ 1 1000)))))) (or ?v_107 (and (<= (* (* ?v_109 999) (/ 1 1000)) ?v_108) (<= ?v_108 (* (* ?v_109 1001) (/ 1 1000)))))) (or ?v_110 (= x_18 (+ x_66 x_39)))) (or ?v_111 (= x_21 (+ x_67 x_39)))) (or ?v_112 (= x_24 (+ x_68 x_39)))) (or ?v_113 (= x_27 (+ x_69 x_39)))) (or ?v_114 (= x_30 (+ x_70 x_39)))) (or ?v_115 (= x_33 (+ x_71 x_39)))) (or ?v_116 (= x_36 (+ x_72 x_39)))) (or ?v_110 (and (<= ?v_118 ?v_117) (<= ?v_117 ?v_120)))) (or ?v_111 (and (<= ?v_118 ?v_119) (<= ?v_119 ?v_120)))) (or ?v_112 (and (<= ?v_118 ?v_121) (<= ?v_121 ?v_120)))) (or ?v_113 (and (<= ?v_118 ?v_122) (<= ?v_122 ?v_120)))) (or ?v_114 (and (<= ?v_118 ?v_123) (<= ?v_123 ?v_120)))) (or ?v_115 (and (<= ?v_118 ?v_124) (<= ?v_124 ?v_120)))) (or ?v_116 (and (<= ?v_118 ?v_125) (<= ?v_125 ?v_120)))) (= x_65 (+ x_37 x_39))) (or (or (or (or (or (or (or (or (or (or (or (or (or (or (or (or (or (or (or (or (or (or (or (or (or (or (or (or (or (or (or (or (or (or (or (or (or (or (or (or (or (or (or (or (or (or (or (or (not (<= (- x_17 x_17) ?v_126)) (not (<= (- x_20 x_17) ?v_126))) (not (<= (- x_23 x_17) ?v_126))) (not (<= (- x_26 x_17) ?v_126))) (not (<= (- x_29 x_17) ?v_126))) (not (<= (- x_32 x_17) ?v_126))) (not (<= (- x_35 x_17) ?v_126))) (not (<= (- x_17 x_20) ?v_126))) (not (<= (- x_20 x_20) ?v_126))) (not (<= (- x_23 x_20) ?v_126))) (not (<= (- x_26 x_20) ?v_126))) (not (<= (- x_29 x_20) ?v_126))) (not (<= (- x_32 x_20) ?v_126))) (not (<= (- x_35 x_20) ?v_126))) (not (<= (- x_17 x_23) ?v_126))) (not (<= (- x_20 x_23) ?v_126))) (not (<= (- x_23 x_23) ?v_126))) (not (<= (- x_26 x_23) ?v_126))) (not (<= (- x_29 x_23) ?v_126))) (not (<= (- x_32 x_23) ?v_126))) (not (<= (- x_35 x_23) ?v_126))) (not (<= (- x_17 x_26) ?v_126))) (not (<= (- x_20 x_26) ?v_126))) (not (<= (- x_23 x_26) ?v_126))) (not (<= (- x_26 x_26) ?v_126))) (not (<= (- x_29 x_26) ?v_126))) (not (<= (- x_32 x_26) ?v_126))) (not (<= (- x_35 x_26) ?v_126))) (not (<= (- x_17 x_29) ?v_126))) (not (<= (- x_20 x_29) ?v_126))) (not (<= (- x_23 x_29) ?v_126))) (not (<= (- x_26 x_29) ?v_126))) (not (<= (- x_29 x_29) ?v_126))) (not (<= (- x_32 x_29) ?v_126))) (not (<= (- x_35 x_29) ?v_126))) (not (<= (- x_17 x_32) ?v_126))) (not (<= (- x_20 x_32) ?v_126))) (not (<= (- x_23 x_32) ?v_126))) (not (<= (- x_26 x_32) ?v_126))) (not (<= (- x_29 x_32) ?v_126))) (not (<= (- x_32 x_32) ?v_126))) (not (<= (- x_35 x_32) ?v_126))) (not (<= (- x_17 x_35) ?v_126))) (not (<= (- x_20 x_35) ?v_126))) (not (<= (- x_23 x_35) ?v_126))) (not (<= (- x_26 x_35) ?v_126))) (not (<= (- x_29 x_35) ?v_126))) (not (<= (- x_32 x_35) ?v_126))) (not (<= (- x_35 x_35) ?v_126))))))))))))))))))
(check-sat)
(exit)
